25241,
25138,
23403,
22740,
22640,
21838,
21182,
21182,
19597,
19597,
19597,
19379,
19181,
18416,
18295,
18295,
17895,
17895,
17806,
17709,
17559,
17448,
17304,
17139,
17139,
17139,
16846,
16278,
16248,
16102,
15976,
15452,
15452,
15452,
14901,
14672,
14575,
14575,
14447,
13994,
13958,
13731,
13619,
13330,
13234,
13193,
13047,
13047,
12840,
12749,
12749,
12688,
12568,
12292,
12292,
12201,
12201,
12007,
11796,
11796,
11682,
11647,
11585,
11543,
11437,
11324,
11301,
11216,
11216,
11172,
11172,
11136,
11075,
11044,
11044,
11031,
11007,
10994,
10752,
10752,
10657,
10657,
10657,
10599,
10579,
10579,
10579,
10518,
10518,
10436,
10363,
10363,
10363,
10312,
10312,
10312,
10288,
10288,
10195,
10195,
10195,
10188,
10057,
10057,
10057,
10057,
10057,
9969,
9969,
9969,
9927,
9899,
9899,
9899,
9783,
9783,
9783,
9783,
9783,
9679,
9679,
9679,
9679,
9679,
9679,
9679,
9679,
9679,
9679,
9679,
9679,
9679,
9679,
9679,
9679,
9679,
9679,
9679,
9652,
9645,
9645,
9645,
9645,
9645,
9645,
9645,
9645,
9645,
9623,
9623,
9623,
9623,
9623,
9440,
9440,
9440,
9440,
9440,
9440,
9440,
9440,
9440,
9367,
9367,
9367,
9346,
9346,
9346,
9305,
9305,
9305,
9294,
9294,
9294,
9294,
9294,
9294,
9294,
9294,
9294,
9270,
9173,
9173,
9173,
9058,
9058,
9058,
9006,
8953,
8953,
8953,
8953,
8953,
8953,
8953,
8947,
8947,
8947,
8947,
8947,
8947,
8947,
8947,
8947,
8947,
8947,
8947,
8947,
8947,
8947,
8947,
8906,
8906,
8906,
8906,
8906,
8906,
8906,
8906,
8906,
8906,
8906,
8906,
8906,
8906,
8906,
8906,
8906,
8906,
8906,
8906,
8906,
8906,
8906,
8906,
8906,
8906,
8906,
8906,
8906,
8906,
8906,
8906,
8906,
8906,
8906,
8906,
8884,
8884,
8884,
8884,
8884,
8884,
8884,
8848,
8848,
8848,
8848,
8848,
8848,
8848,
8848,
8848,
8848,
8848,
8848,
8848,
8848,
8772,
8772,
8772,
8772,
8772,
8772,
8772,
8772,
8772,
8772,
8772,
8772,
8720,
8720,
8720,
8720,
8720,
8720,
8720,
8720,
8720,
8720,
8720,
8720,
8720,
8720,
8720,
8720,
8720,
8720,
8720,
8720,
8720,
8720,
8720,
8720,
8720,
8720,
8720,
8720,
8720,
8720,
8720,
8720,
8655,
8655,
8655,
8655,
8655,
8655,
8655,
8655,
8655,
8655,
8655,
8655,
8655,
8655,
8655,
8655,
8655,
8655,
8655,
8655,
8655,
8655,
8655,
8655,
8655,
8655,
8655,
8655,
8655,
8655,
8655,
8655,
8655,
8655,
8655,
8655,
8655,
8655,
8655,
8655,
8655,
8655,
8655,
8655,
8655,
8655,
8655,
8655,
8655,
8655,
8655,
8655,
8655,
8655,
8655,
8655,
8655,
8655,
8655,
8655,
8655,
8655,
8655,
8655,
8655,
8655,
8655,
8655,
8655,
8655,
8655,
8655,
8655,
8655,
8655,
8655,
8655,
8655,
8655,
8655,
8655,
8655,
8655,
8655,
8655,
8655,
8655,
8655,
8655,
8655,
8655,
8655,
8655,
8655,
8655,
8655,
8655,
8655,
8655,
8655,
8655,
8655,
8655,
8655,
8655,
8655,
8655,
8655,
8655,
8655,
8655,
8655,
8655,
8655,
8655,
8655,
8655,
8655,
8655,
8655,
8655,
8655,
8655,
8655,
8655,
8655,
8655,
8655,
8655,
8655,
8655,
8655,
8655,
8655,
8655,
8655,
8655,
8655,
8655,
8655,
8655,
8655,
8655,
8655,
8655,
8655,
8655,
8655,
8655,
8655,
8655,
8655,
8655,
8655,
8655,
8655,
8655,
8655,
8655,
8655,
8655,
8655,
8655,
8655,
8655,
8655,
8655,
8655,
8655,
8655,
8655,
8655,
8655,
8655,
8655,
8655,
8655,
8655,
8655,
8655,
8655,
8655,
8655,
8655,
8655,
8655,
8655,
8655,
8655,
8655,
8655,
8655,
8655,
8655,
8655,
8655,
8655,
8655,
8655,
8655,
8655,
8655,
8655,
8655,
8655,
8655,
8655,
8655,
8655,
8655,
8655,
8655,
8655,
8655,
8655,
8655,
8655,
8655,
8655,
8655,
8655,
8655,
8655,
8655,
8655,
8655,
8655,
8655,
8655,
8655,
8655,
8655,
8655,
8655,
8655,
8655,
8655,
8655,
8655,
8655,
8655,
8655,
8655,
8655,
8655,
8655,
8655,
8655,
8655,
8655,
8655,
8655,
8655,
8655,
8655,
8655,
8655,
8655,
8655,
8655,
8655,
8655,
8655,
8655,
8655,
8655,
8655,
8655,
8655,
8655,
8655,
8655,
8655,
8655,
8655,
8655,
8655,
8655,
8655,
8655,
8655,
8655,
8655,
8655,
8655,
8655,
8655,
8655,
8655,
8655,
8655,
8655,
8655,
8655,
8655,
8655,
8655,
8655,
8655,
8655,
8655,
8655,
8655,
8655,
8655,
8655,
8655,
8655,
8655,
8655,
8655,
8655,
8655,
8655,
8655,
8655,
8655,
8655,
8655,
8655,
8655,
8655,
8655,
8655,
8655,
8655,
8655,
8655,
8655,
8655,
8655,
8655,
8655,
8655,
8655,
8655,
8655,
8655,
8655,
8655,
8655,
8655,
8655,
8655,
8655,
8655,
8655,
8655,
8655,
8655,
8655,
8655,
8655,
8655,
8655,
8655,
8655,
8655,
8655,
8655,
8655,
8655,
8655,
8655,
8655,
8655,
8655,
8655,
8655,
8655,
8655,
8655,
8655,
8655,
8655,
8655,
8655,
8655,
8655,
8655,
8655,
8655,
8655,
8655,
8655,
8655,
8655,
8655,
8655,
8655,
8655,
8655,
8655,
8655,
8655,
8655,
8655,
8655,
8655,
8655,
8655,
8655,
8655,
8655,
8655,
8655,
8655,
8655,
8655,
8655,
8655,
8655,
8655,
8655,
8655,
8655,
8655,
8655,
8655,
8655,
8655,
8655,
8655,
8655,
8655,
8655,
8655,
8655,
8655,
8655,
8655,
8655,
8655,
8655,
8655,
8655,
8655,
8655,
8655,
8655,
8655,
8655,
8655,
8655,
8655,
8655,
8655,
8655,
8655,
8655,
8655,
8655,
8655,
8655,
8655,
8655,
8655,
8655,
8655,
8655,
8655,
8655,
8655,
8655,
8655,
8655,
8655,
8655,
8655,
8655,
8655,
8655,
8655,
8655,
8655,
8655,
8655,
8655,
8655,
8655,
8655,
8655,
8655,
8655,
8655,
8655,
8655,
8655,
8655,
8655,
8655,
8655,
8655,
8655,
8655,
8655,
8655,
8655,
8655,
8655,
8655,
8655,
8655,
8655,
8655,
8655,
8655,
8655,
8655,
8655,
8655,
8655,
8655,
8655,
8655,
8655,
8655,
8655,
8655,
8655,
8655,
8655,
8655,
8655,
8655,
8655,
8655,
8655,
8655,
8655,
8655,
8655,
8655,
8655,
8655,
8655,
8655,
8655,
8655,
8655,
8655,
8655,
8655,
8655,
8655,
8655,
8655,
8655,
8655,
8655,
8655,
8655,
8655,
8655,
8655,
8655,
8655,
8655,
8655,
8655,
8655,
8655,
8655,
8655,
8655,
8655,
8655,
8655,
8655,
8655,
8655,
8655,
8655,
8655,
8655,
8655,
8655,
8655,
8655,
8655,
8655,
8655,
8655,
8655,
8655,
8655,
8655,
8655,
8655,
8655,
8655,
8655,
8655,
8655,
8655,
8655,
8655,
8655,
8655,
8655,
8655,
8655,
8655,
8655,
8655,
8655,
8655,
8655,
8655,
8655,
8655,
8655,
8655,
8655,
8655,
8655,
8655,
8655,
8655,
8655,
8655,
8655,
8655,
8655,
8655,
8655,
8655,
8655,
8655,
8655,
8655,
8655,
8655,
8655,
8655,
8655,
8655,
8655,
8655,
8655,
8655,
8655,
8655,
8655,
8655,
8655,
8655,
8655,
8655,
8655,
8655,
8655,
8655,
8655,
8655,
8655,
8655,
8655,
8655,
8655,
8655,
8655,
8655,
8655,
8655,
8655,
8655,
8655,
8655,
8655,
8655,
8655,
8655,
8655,
8655,
8655,
8655,
8655,
8655,
8655,
8655,
8655,
8655,
8655,
8655,
8655,
8655,
8655,
8655,
8655,
8655,
8655,
8655,
8655,
8655,
8655,
8655,
8655,
8655,
8655,
8655,
8655,
8655,
8655,
8655,
8655,
8655,
8655,
8655,
8655,
8655,
8655,
8655,
8655,
8655,
8655,
8655,
8655,
8655,
8655,
8655,
8655,
8655,
8655,
8655,
8655,
8655,
8655,
8655,
8655,
8655,
8655,
8655,
8655,
8655,
8655,
8655,
8655,
8655,
8655,
8655,
8655,
8655,
8655,
8655,
8655,
8655,
8655,
8655,
8655,
8655,
8655,
8655,
8655,
8655,
8655,
8655,
8655,
8655,
8655,
8655,
8655,
8655,
8655,
8655,
8655,
8655,
8655,
8655,
8655,
8655,
8655,
8655,
8655,
8655,
8655,
8655,
8655,
8655,
8655,
8655,
8655,
8655,
8655,
8655,
8655,
8655,
8655,
8655,
8655,
8655,
8655,
8655,
8655,
8655,
8655,
8655,
8655,
8655,
8655,
8655,
8655,
8655,
8655,
8655,
8655,
8655,
8655,
8655,
8655,
8655,
8655,
8655,
8655,
8655,
8655,
8655,
8655,
8655,
8655,
8655,
8655,
8655,
8655,
8655,
8655,
8655,
8655,
8655,
8655,
8655,
8655,
8655,
8655,
8655,
8655,
8655,
8655,
8655,
8655,
8655,
8655,
8655,
8655,
8655,
8655,
8655,
8655,
8655,
8655,
8655,
8655,
8655,
8655,
8655,
8655,
8655,
8655,
8655,
8655,
8655,
8655,
8655,
8655,
8655,
8655,
8655,
8655,
8655,
8655,
8655,
8655,
8655,
8655,
8655,
8655,
8655,
8655,
8655,
8655,
8655,
8655,
8655,
8655,
8655,
8655,
8655,
8655,
8655,
8655,
8655,
8655,
8655,
8655,
8655,
8655,
8655,
8655,
8655,
8655,
8655,
8655,
8655,
8655,
8655,
8655,
8655,
8655,
8655,
8655,
8655,
8655,
8655,
8655,
8655,
8655,
8655,
8655,
8655,
8655,
8655,
8655,
8655,
8655,
8655,
8655,
8655,
8655,
8655,
8655,
8655,
8655,
8655,
8655,
8655,
8655,
8655,
8655,
8655,
8655,
8655,
8655,
8655,
8655,
8655,
8655,
8655,
8655,
8655,
8655,
8655,
8655,
8655,
8655,
8655,
8655,
8655,
8655,
8655,
8655,
8655,
8655,
8655,
8655,
8655,
8655,
8655,
8655,
8655,
8655,
8655,
8655,
8655,
8655,
8655,
8655,
8655,
8655,
8655,
8655,
8655,
8655,
8655,
8655,
8655,
8655,
8655,
8655,
8655,
8655,
8655,
8655,
8655,
8655,
8655,
8655,
8655,
8655,
8655,
8655,
8655,
8655,
8655,
8655,
8655,
8655,
8655,
8655,
8655,
8655,
8655,
8655,
8655,
8655,
8655,
8655,
8655,
8655,
8655,
8655,
8655,
8655,
8655,
8655,
8655,
8655,
8655,
8655,
8655,
8655,
8655,
8655,
8655,
8655,
8655,
8655,
8655,
8655,
8655,
8655,
8655,
8655,
8655,
8655,
8655,
8655,
8655,
8655,
8655,
8655,
8655,
8655,
8655,
8655,
8655,
8655,
8655,
8655,
8655,
8655,
8655,
8655,
8655,
8655,
8655,
8655,
8655,
8655,
8655,
8655,
8655,
8655,
8655,
8655,
8655,
8655,
8655,
8655,
8655,
8655,
8655,
8655,
8655,
8655,
8655,
8655,
8655,
8655,
8655,
8655,
8655,
8655,
8655,
8655,
8655,
8655,
8655,
8655,
8655,
8655,
8655,
8655,
8655,
8655,
8655,
8655,
8655,
8655,
8655,
8655,
8655,
8655,
8655,
8655,
8655,
8655,
8655,
8655,
8655,
8655,
8655,
8655,
8655,
8655,
8655,
8655,
8655,
8655,
8655,
8655,
8655,
8655,
8655,
8655,
8655,
8655,
8655,
8655,
8655,
8655,
8655,
8655,
8655,
8655,
8655,
8655,
8655,
8655,
8655,
8655,
8655,
8655,
8655,
8655,
8655,
8655,
8655,
8655,
8655,
8655,
8655,
8655,
8655,
8655,
8655,
8655,
8655,
8655,
8655,
8655,
8655,
8655,
8655,
8655,
8655,
8655,
8655,
8655,
8655,
8655,
8655,
8655,
8655,
8655,
8655,
8655,
8655,
8655,
8655,
1,
